p cnf 18 72
1 2 0
-1 -2 0
7 8 0
-7 -8 0
13 14 0
-13 -14 0
3 4 0
-3 -4 0
9 10 0
-9 -10 0
15 16 0
-15 -16 0
5 6 0
-5 -6 0
11 12 0
-11 -12 0
17 18 0
-17 -18 0
-1 -7 -13 4 0
-1 -8 -13 4 0
-1 -7 -14 4 0
-1 -8 -14 4 0
-2 -7 -13 4 0
-2 -8 -13 4 0
-2 -7 -14 4 0
-2 -8 -14 3 0
-7 -1 -13 10 0
-7 -2 -13 10 0
-7 -1 -14 10 0
-7 -2 -14 10 0
-8 -1 -13 10 0
-8 -2 -13 10 0
-8 -1 -14 10 0
-8 -2 -14 9 0
-13 -1 -7 16 0
-13 -2 -7 16 0
-13 -1 -8 16 0
-13 -2 -8 16 0
-14 -1 -7 16 0
-14 -2 -7 16 0
-14 -1 -8 16 0
-14 -2 -8 15 0
-3 -9 -15 6 0
-3 -10 -15 6 0
-3 -9 -16 6 0
-3 -10 -16 6 0
-4 -9 -15 6 0
-4 -10 -15 6 0
-4 -9 -16 6 0
-4 -10 -16 5 0
-9 -3 -15 12 0
-9 -4 -15 12 0
-9 -3 -16 12 0
-9 -4 -16 12 0
-10 -3 -15 12 0
-10 -4 -15 12 0
-10 -3 -16 12 0
-10 -4 -16 11 0
-15 -3 -9 18 0
-15 -4 -9 18 0
-15 -3 -10 18 0
-15 -4 -10 18 0
-16 -3 -9 18 0
-16 -4 -9 18 0
-16 -3 -10 18 0
-16 -4 -10 17 0
-5 -11 -17 0
-6 -12 -18 0
-1 -7 -13 0
-2 -8 -14 0
-7 -2 0
-13 -2 0
